
Gurobi 10.0.1 (linux64) logging started Sun Nov 26 15:55:14 2023

Set parameter LogFile to value "ArtificialInstance/ExperimentV2/S2T3K3/BaRo/gurobi91.txt"
Gurobi Optimizer version 10.0.1 build v10.0.1rc0 (linux64)

CPU model: AMD EPYC 7H12 64-Core Processor, instruction set [SSE2|AVX|AVX2]
Thread count: 128 physical cores, 128 logical processors, using up to 32 threads

Academic license 656792 - for non-commercial use only - registered to b.___@student.vu.nl
Optimize a model with 2052 rows, 3121 columns and 10722 nonzeros
Model fingerprint: 0xa1cd33f5
Variable types: 1 continuous, 3120 integer (3120 binary)
Coefficient statistics:
  Matrix range     [1e+00, 4e+01]
  Objective range  [1e+00, 2e+01]
  Bounds range     [1e+00, 1e+00]
  RHS range        [1e+00, 1e+00]
Found heuristic solution: objective 709.6873938
Presolve time: 0.02s
Presolved: 2052 rows, 3121 columns, 10722 nonzeros
Variable types: 1 continuous, 3120 integer (3120 binary)

Root relaxation: objective 4.509344e+01, 1921 iterations, 0.06 seconds (0.04 work units)

    Nodes    |    Current Node    |     Objective Bounds      |     Work
 Expl Unexpl |  Obj  Depth IntInf | Incumbent    BestBd   Gap | It/Node Time

     0     0   45.09344    0  336  709.68739   45.09344  93.6%     -    0s
H    0     0                     230.8086378   45.09344  80.5%     -    0s
H    0     0                      90.2924222   45.09344  50.1%     -    0s
     0     0   50.45550    0  316   90.29242   50.45550  44.1%     -    0s
H    0     0                      81.4174277   50.45550  38.0%     -    0s
H    0     0                      80.1290483   54.34523  32.2%     -    0s
     0     0   54.34523    0  581   80.12905   54.34523  32.2%     -    0s
H    0     0                      69.4064972   54.34523  21.7%     -    0s
     0     0   54.34523    0  581   69.40650   54.34523  21.7%     -    0s
     0     0   56.21602    0  578   69.40650   56.21602  19.0%     -    0s
H    0     0                      62.5381191   56.21602  10.1%     -    0s
     0     0   56.25865    0  543   62.53812   56.25865  10.0%     -    0s
     0     0   56.26810    0  547   62.53812   56.26810  10.0%     -    0s
     0     0   56.26810    0  550   62.53812   56.26810  10.0%     -    0s
     0     0   56.71352    0  543   62.53812   56.71352  9.31%     -    0s
     0     0   56.72920    0  660   62.53812   56.72920  9.29%     -    0s
     0     0   57.37771    0  618   62.53812   57.37771  8.25%     -    0s
     0     0   57.42134    0  642   62.53812   57.42134  8.18%     -    0s
     0     0   57.42566    0  697   62.53812   57.42566  8.17%     -    0s
     0     0   57.42566    0  698   62.53812   57.42566  8.17%     -    0s
     0     0   57.72640    0  501   62.53812   57.72640  7.69%     -    0s
     0     0   57.72640    0  326   62.53812   57.72640  7.69%     -    0s
     0     0   57.72640    0  264   62.53812   57.72640  7.69%     -    1s
     0     0   57.72640    0  571   62.53812   57.72640  7.69%     -    1s
     0     0   57.74366    0  560   62.53812   57.74366  7.67%     -    1s
     0     0   57.75301    0  587   62.53812   57.75301  7.65%     -    1s
     0     0   57.77349    0  536   62.53812   57.77349  7.62%     -    1s
     0     0   57.77349    0  536   62.53812   57.77349  7.62%     -    1s
     0     0   58.21370    0  655   62.53812   58.21370  6.91%     -    1s
     0     0   58.21444    0  662   62.53812   58.21444  6.91%     -    1s
     0     0   58.70699    0  519   62.53812   58.70699  6.13%     -    1s
     0     0   58.77183    0  620   62.53812   58.77183  6.02%     -    1s
     0     0   58.79305    0  623   62.53812   58.79305  5.99%     -    1s
     0     0   58.79390    0  644   62.53812   58.79390  5.99%     -    1s
H    0     0                      62.0832275   58.79390  5.30%     -    1s
     0     0   59.28422    0  563   62.08323   59.28422  4.51%     -    1s
     0     0   59.37111    0  647   62.08323   59.37111  4.37%     -    1s
     0     0   59.39425    0  667   62.08323   59.39425  4.33%     -    1s
     0     0   59.39613    0  678   62.08323   59.39613  4.33%     -    1s
     0     0   59.43245    0  668   62.08323   59.43245  4.27%     -    1s
     0     0   59.52658    0  694   62.08323   59.52658  4.12%     -    1s
     0     0   59.53504    0  694   62.08323   59.53504  4.10%     -    1s
     0     0   59.76044    0  691   62.08323   59.76044  3.74%     -    1s
     0     0   59.80819    0  690   62.08323   59.80819  3.66%     -    1s
     0     0   60.07551    0  690   62.08323   60.07551  3.23%     -    1s
     0     0   60.09683    0  663   62.08323   60.09683  3.20%     -    1s
     0     0   60.09683    0  323   62.08323   60.09683  3.20%     -    1s
     0     0   60.09683    0  570   62.08323   60.09683  3.20%     -    2s
     0     0   60.09683    0  590   62.08323   60.09683  3.20%     -    2s
     0     0   60.09683    0  619   62.08323   60.09683  3.20%     -    2s
     0     0   60.09683    0  643   62.08323   60.09683  3.20%     -    2s
     0     0   60.09683    0  633   62.08323   60.09683  3.20%     -    2s
     0     0   60.09683    0  644   62.08323   60.09683  3.20%     -    2s
     0     0   60.09683    0  496   62.08323   60.09683  3.20%     -    2s
     0     0   60.09683    0  594   62.08323   60.09683  3.20%     -    2s
     0     0   60.09683    0  482   62.08323   60.09683  3.20%     -    2s
     0     0   60.09683    0  629   62.08323   60.09683  3.20%     -    2s
     0     0   60.09683    0  673   62.08323   60.09683  3.20%     -    2s
     0     0   60.09683    0  679   62.08323   60.09683  3.20%     -    2s
     0     0   60.20571    0  633   62.08323   60.20571  3.02%     -    2s
     0     0   60.21352    0  659   62.08323   60.21352  3.01%     -    2s
     0     0   60.21352    0  661   62.08323   60.21352  3.01%     -    2s

Cutting planes:
  Gomory: 16
  Zero half: 97
  RLT: 37

Explored 1 nodes (19805 simplex iterations) in 2.65 seconds (1.59 work units)
Thread count was 32 (of 128 available processors)

Solution count 8: 62.0832 62.5381 69.4065 ... 709.687

Optimal solution found (tolerance 1.00e-04)
Best objective 6.208322751840e+01, best bound 6.208322751840e+01, gap 0.0000%
